(set-logic QF_SLIA)
(declare-fun var0 () String)
(assert (not (str.in_re var0 (re.++ ((_ re.loop 17 905) (re.++ (re.union (str.to_re "\u0022") (re.union (str.to_re "5P") (re.union (str.to_re "\\") (str.to_re "BDg")))) (re.++ (re.union (str.to_re "A") (re.union (str.to_re "4:") (re.union (str.to_re "Dw") (str.to_re "vJ")))) (re.++ (re.union (str.to_re "RZb") (re.union (str.to_re "d\\") (re.union (str.to_re "dDE") (str.to_re "h")))) (re.union (str.to_re "SeF") (re.union (str.to_re "=") (re.union (str.to_re "__") (str.to_re "H(j")))))))) (re.++ ((_ re.loop 18 74) (re.++ (re.union (str.to_re "<T.") (re.union (str.to_re "V<z") (re.union (str.to_re "n") (str.to_re "qGJ")))) (re.++ (re.union (str.to_re "No") (re.union (str.to_re "m") (re.union (str.to_re "G@") (str.to_re "x")))) (re.++ (re.union (str.to_re "lO") (re.union (str.to_re "{") (re.union (str.to_re "w_^") (str.to_re "g")))) (re.union (str.to_re "iJH") (re.union (str.to_re ";t") (re.union (str.to_re "H") (str.to_re "/")))))))) (re.++ ((_ re.loop 7 483) (re.++ (re.union (str.to_re "#") (re.union (str.to_re "so@") (re.union (str.to_re "./") (str.to_re "9o5")))) (re.++ (re.union (str.to_re "N`p") (re.union (str.to_re "VL") (re.union (str.to_re "O") (str.to_re "?@Z")))) (re.++ (re.union (str.to_re "D}") (re.union (str.to_re "V9B") (re.union (str.to_re "'^") (str.to_re "mf/")))) (re.union (str.to_re "Y*7") (re.union (str.to_re "+") (re.union (str.to_re "i") (str.to_re "#j")))))))) ((_ re.loop 10 831) (re.++ (re.union (str.to_re "^D") (re.union (str.to_re "jb]") (re.union (str.to_re "|") (str.to_re "O)q")))) (re.++ (re.union (str.to_re "8") (re.union (str.to_re "]TA") (re.union (str.to_re "C+:") (str.to_re "e")))) (re.++ (re.union (str.to_re "/") (re.union (str.to_re "n") (re.union (str.to_re "wS+") (str.to_re "l")))) (re.union (str.to_re "Oz") (re.union (str.to_re "Oh@") (re.union (str.to_re "M+") (str.to_re "B"))))))))))))))
(assert (not (str.in_re var0 (re.++ ((_ re.loop 12 161) (re.++ (re.union (str.to_re ")") (re.union (str.to_re "rW") (re.union (str.to_re "A") (str.to_re "{")))) (re.++ (re.union (str.to_re "*zX") (re.union (str.to_re "pJ") (re.union (str.to_re "c") (str.to_re "WF")))) (re.++ (re.union (str.to_re "g[") (re.union (str.to_re "\u0022") (re.union (str.to_re "\\2") (str.to_re "c")))) (re.union (str.to_re "~,t") (re.union (str.to_re "d3") (re.union (str.to_re "~2") (str.to_re ";f,")))))))) (re.++ ((_ re.loop 2 672) (re.++ (re.union (str.to_re "VK") (re.union (str.to_re "$X") (re.union (str.to_re "}") (str.to_re "]$c")))) (re.++ (re.union (str.to_re ",`.") (re.union (str.to_re "[") (re.union (str.to_re "'") (str.to_re "(^")))) (re.++ (re.union (str.to_re "Z") (re.union (str.to_re "Rc_") (re.union (str.to_re "v") (str.to_re ",d!")))) (re.union (str.to_re "L") (re.union (str.to_re "s") (re.union (str.to_re "U") (str.to_re "oYZ")))))))) (re.++ ((_ re.loop 15 643) (re.++ (re.union (str.to_re "dQV") (re.union (str.to_re "K") (re.union (str.to_re "~M5") (str.to_re "kL")))) (re.++ (re.union (str.to_re "#/p") (re.union (str.to_re "a@y") (re.union (str.to_re "cX") (str.to_re "S%")))) (re.++ (re.union (str.to_re "jP") (re.union (str.to_re "a") (re.union (str.to_re "z7") (str.to_re "lcd")))) (re.union (str.to_re ":2") (re.union (str.to_re "?YI") (re.union (str.to_re "kt}") (str.to_re "7YL")))))))) ((_ re.loop 18 667) (re.++ (re.union (str.to_re "-") (re.union (str.to_re "p") (re.union (str.to_re "~$K") (str.to_re "@#i")))) (re.++ (re.union (str.to_re "^") (re.union (str.to_re "zY#") (re.union (str.to_re ":,") (str.to_re "!m")))) (re.++ (re.union (str.to_re "i") (re.union (str.to_re "&mC") (re.union (str.to_re "j\\") (str.to_re "8C")))) (re.union (str.to_re "XV") (re.union (str.to_re "!") (re.union (str.to_re "Xl") (str.to_re "pW-"))))))))))))))
(assert (not (str.in_re var0 (re.++ (re.* re.allchar) (re.++ (re.union (str.to_re "<") (re.union (str.to_re ">") (re.union (str.to_re "'") (re.union (str.to_re "\u0022") (str.to_re "&"))))) (re.* re.allchar))))))
(assert (<= 50 (str.len var0)))
(check-sat)
(get-model)
